100
128
17
32
46
16
19
5
1
39
6
2
56
17
20
17
20
12
1
13
59
23
46
13
17
13
10
13
25
45
33
9
18
47
31
23
15
34
24
35
18
48
38
11
25
38
40
22
32
54
21
27
20
33
52
41
21
49
63
61
58
28
57
20
50
19
59
22
26
37
63
6
23
9
52
39
30
33
37
49
48
31
58
9
42
28
32
56
1
58
27
48
37
43
64
63
32
38
64
64
18
10